
 102   30
  10   10   10   10   10   10   10   10   10   10   10   10   10   10   10   10   10   10   10   10   10   10   10   10   10   10   10   10   10   10

   0   0   0   0   0   0   0   0   0   0   0   0   0   0   0   0   0   0   0   0   0   0   0   0   0   0   0   0   0   0   0  30 2 3 4 5 6 7 8 9 10 11 12 14 15 16 17 18 19 20 21 22 24 26 27 28 29 31 34 35 41 45 
   4   0   0   0   0   0   0   0   0   0   1   0   0   1   0   0   0   0   0   0   0   0   0   0   0   0   0   0   0   0   0  12 73 60 57 52 48 46 43 40 33 30 23 13 
  10   1   0   0   0   0   1   0   0   0   0   0   0   0   0   0   0   0   0   0   0   0   0   1   0   0   0   0   0   0   4  14 101 100 73 66 65 62 60 59 54 51 44 33 25 23 
   6   0   0   0   0   0   0   0   2   2   0   0   0   0   0   0   0   0   0   0   0   0   0   0   0   4   0   0   3   0   0  17 99 98 97 92 90 89 73 72 71 70 65 63 57 56 55 43 37 
   5   0   0   0   0   0   0   0   3   9   0   0   0   0   0   1   0   1   0   0   0   0   4   0   0   0   0   0   0   0   0  15 100 98 97 73 71 66 65 64 63 59 53 52 50 44 40 
   2   0   0   0   0   0   0   0   0   0   0   0   2   0   4   0   0   0   0   0   1   0   0   0   0   0   0   0   8   0   0  13 97 94 71 60 59 58 56 55 52 51 50 48 43 
   1   0   0   0   0   0   0   0   0   7   0   0   0   0   0   0   0   0   0   0   0   0   4   0   1   0   0   0   0   0   0  10 101 73 67 65 64 61 59 52 40 23 
   3   0   0   0   0   0   4   0   0   0   0   0   0   0   0   6   0   0   0   1   0   0   0   0   0   0   0   0   0   0   8  12 100 95 80 73 66 65 61 59 58 57 52 23 
   1   0   0   0   0   0   0   0   0   0   0   0   6   4   0   0   0   0   0   0   0   0   7   0   6   0   0   0   0   0   0  15 101 100 98 97 96 95 73 66 65 63 62 59 55 52 39 
   8   5   0   0   0   0   0   0   0   0   0   0   0   0   0   0   0   0   0   0   0   0   0   0   0   6   0   0   0   0   0  11 99 98 96 86 71 67 60 58 55 42 30 
   2   0   0   0   0   0   0   1   0   0   0   0   7   0   0   0   0   0   0   0   0   0   0   0   0   0   2   2   0   0   0   9 99 95 71 61 58 55 50 49 32 
   5   6   3   0   0   0   0   0   0   0   0   0   0   0   0   0   2  10   0   0   9   0   5   0   0   0  10   0   0   0   3  13 94 93 71 67 65 60 59 58 56 55 50 48 43 
   1   7   0   0   0   4   0   0   0   0   0   0   0   0   0   0   0   0   0  10   0   0   0   4   0   0   0   0   7   0   0  19 100 99 97 96 94 91 72 71 70 69 65 64 63 62 61 55 54 47 44 
  10   0   0   0   0   0   0   0   0   0   0   2   0   0   0   0   6   0   0   0   0   0   0   0   0   3   0   0   0   1   0  12 86 73 71 66 64 62 60 55 54 49 48 38 
   1   0   0   0   0   0   0   0   2   0   0   0   0   0   0   0   0   0   0   0   0   0   0   0   0   0   0   0   0   0   0  24 100 99 97 96 94 93 92 91 89 86 83 82 81 71 69 67 66 65 64 63 62 60 59 51 
   6   0   0   0   0   0   0   4   0   0   0   0   0   7   0   0   0   0   0   0   0   0   0   4   0   0   0   0   0   0   0  11 99 94 92 91 66 65 64 58 55 48 36 
   1   0   6   0   0   0   0   9   8   0   0   0   0   0   5   0   0   9   0   0   0   0   4   0   0   0   0   0   0   0   0  15 98 97 95 92 91 89 88 73 72 70 65 64 59 56 40 
   5   7   0   0   0   7   0   0   0   0   0   0   0   5   0   0   0   0   0   4   0   0   0   0   0   0   0   0   0   4   0  12 99 95 93 73 71 67 65 62 61 56 55 50 
   6   0   0   0   0   0   0   0   0   0   0   0   7   0   0   0   8   0   0   0   0   0   0   0   0   0   5   0   0   0   9  17 97 94 91 86 81 71 70 69 67 66 65 64 61 60 59 55 52 
   2   0   0   0   0   0   0   0   0   0   0   0   0   0   0   0   0   0   0   0   0   0   0   0   0   0   0   0   0   0   0  17 99 97 96 93 91 90 89 82 81 73 72 71 61 60 59 57 51 
   1   0   0   0   0   0   6   0   0   0   0   0   4   8   0   0   0   0   2   8   0   0   0   5   0   0   8   0   0   0   0  13 100 99 97 84 83 73 71 69 68 67 62 50 48 
   1   0   6   1   0   3  10   7   7   8   5   0   8   0   0   0   0   0   0   0   0   0   0   0   0   0   0   0   0   0   0  16 99 95 93 91 88 87 86 85 79 71 68 64 59 58 56 54 
   6   0   0   0   0   0   0   0   5   0   0   0   0   0   5   0   0   0   0   0   0   0   0   0   0   5   0   0   0   0   0  15 99 97 94 93 87 85 83 82 79 77 71 70 69 63 50 
   4   5   0   0   2   0   0   0   0   0   0   0   0   0   0   0   0   0   0   0   0   0   7   0   0   5   5   0   0   0   0  14 100 95 94 92 90 87 85 81 73 70 60 59 58 53 
   9   0   0   0   0   0   0   0   0   0   0   0   0   0   0   0   0   0   0   0   0   1   0   0   9   0   9   0   0   0   0  11 97 96 94 92 91 89 88 84 67 64 40 
   1   0   0   7   0   0   0   7   0   0   0   0   0   0   0   0   0   0   0   0   0   0   5   0   5   0   0   0   0   6   0  19 97 93 92 91 90 89 88 87 86 84 82 80 73 72 71 69 66 65 55 
   2   0   0   0   0   0   0   0   0   0   0   0   0   0   0   0   0   0   0   0   0   0   0   0   0   0   0   0   0   0   0  17 98 96 94 91 90 87 86 84 82 80 73 71 69 66 63 61 55 
   2   0   0   8   0   0   0   8   0   0   0   0   3   0   0   0   0   7   0   0   8   0   0   0   0   0   0   0   0   0   0  20 98 96 94 92 91 89 88 87 85 84 83 82 81 79 77 72 68 66 64 58 
   7   0   0   0   0   0   0   0   0   3   0   0   0   0   0   0   0   5   0   0   0   5   0   0   0   0   0   0   0   0   0  19 99 96 94 91 87 86 85 84 83 82 81 79 77 72 71 70 64 62 58 
   3   0   0   5   0   0   0   0   0   8   0   0   0   0   0   0   0   0   0   0   0   3   0   0   0   0   0   0   0   0   0   8 97 93 79 70 69 63 56 44 
   2   7   0   0   0   0   0   0   5   0   0   0   0   0   0   0   0   5   0  10   0   0   6   0   0   0   0   0   0   0   0  13 98 95 94 86 82 72 71 70 69 67 63 60 55 
   4   0   0   0   0   0   0   0   0   0   7   6   0   0   0   0   0   0   0   0   5   0   0   0   0   0   0   0   0   0   0  17 98 97 93 91 90 89 88 87 86 85 82 81 73 70 68 60 59 
   9   0   0   0   0   0   7   0   0   0   6   0   0   7   0   0   0   0   0   0   0   0   7   0   9   0   9   0   0   0   0  13 98 96 91 86 84 82 81 78 72 70 64 63 55 
   9   0   0   7   0   0   0   0   0   0   0   0   0   0   0   5   0   0   0   7   0   0   0   0   0   0   0   0   0   0   0  18 96 95 93 91 90 88 87 85 84 82 81 79 78 77 75 69 68 57 
   6   0   0   6   7   0   0   0   0   0   0   0   0   0   0   0   0   0   0   0   0   0   0   8   0   0   0   0   0   0   0  17 95 92 91 90 89 88 86 85 83 82 81 77 74 71 66 65 64 
   3   0   0   0   0   0   0   0   0   0   0   0   0   0   0   0   0   0   0   0   0   0   0   0   0   0   0   0   6   0   0  15 97 93 89 87 86 85 83 82 81 80 79 75 73 71 59 
   4   0   0   0   0   0   0   0   6   0   0   0   0   0   0   6   0   0   0   0   0   4   0   0   0   0   0   0   0   0   0  12 96 95 93 83 82 80 79 68 67 66 59 58 
  10   0   0   0   0   0   0   0   0   0   0   8   0   0   0   0   0   0   0   0   0   0   0   0   0   0   0   0   0   0   0  15 95 94 93 91 90 88 85 83 82 81 76 70 69 68 59 
   4   0   0   0   0   0   0   0   0   0   0   0   0   0   0   0   0   0   0   0   0   0   0   0   0  10   0   0   0   0   0  14 94 92 91 90 86 84 83 81 78 77 72 69 68 67 
   5   0   0   0   0   0   0   0   0   0   0   0   0   0   0   0   0   0   0   6   0   0   0   0   7   0   5   0   0   0   0   9 93 90 87 86 82 81 80 58 55 
   1   0  10   0   3   0   0   7   0   0   0   0   0   0   0   0   0   0   0   0   0   8   0   0   0   0   0   0   0   0   0   6 98 95 79 77 66 50 
  10   0   0   0   0   6   0   7   0   0   0   0   0   0   6   9  10   0   0   0   7   0   0   0   0  10   0   0   0   0   0  11 94 88 83 82 81 79 78 75 68 64 59 
   6   0   0   0   0   0   0   0   0   0   0   0   0   0   0   0   0   0   0   0   0   7   0   3   4   0   0   0   0   0   0  11 100 96 87 83 81 79 77 75 69 68 64 
   3   0   7   0   0   0   0   0   0   0   0   0   0   0   0   7   0   0   8   0   0   0   0   0   0   0   0   0   0   0   0  12 95 92 90 89 88 85 83 81 80 77 75 68 
   1   0   0   0   0   0   0   0   0   0   0   0   0   0   0   0   0   0   0   0   0   0   0   0   0   0   0   0   0   0   0  11 98 84 82 81 80 79 78 77 74 73 70 
   3   6   0   8   0   0   0   3   0   0   0   0   0   0   0   6   3   9   0   0   0   6   7   0   0   0   0   0   0   0   0  10 91 90 89 87 80 77 76 75 71 69 
   1   4   0   0   0   4   0   0   6   0   0   0   0   0   0   0   0   0   0   0   0   0   0   0   0   0   0   0   0   0   8  11 98 89 86 84 83 82 81 78 77 76 75 
   2   0   0   0   0   0   8   0   0   0   0   0   0   9   0   6   0   6   9   0   6   7   0   9   0   0   0   0   0   0   0  10 98 95 90 87 85 81 79 78 74 70 
   8   0   0   0   0   0   0   0   0   0   0   0   0   0   0   0   0   0   0   0   8   0   0   0   0   0   0   0   0   0   0   9 94 91 89 88 85 80 77 74 65 
   6   0   0   0   0   0   0   0   0   0   4   0   0   0   0   0   0   0   0   0   0   0   0   0   0   0   8   0   3   0   0   9 96 92 91 90 89 86 81 74 72 
   9   0   0   0   0   0   0   2   9   0   0   0   0   1   0   0   0   0   0   5   0   0   0   5   0   0   0   0   0   0   0   8 88 87 85 84 79 77 70 68 
   9   8   0   0  10   0   0   0   0   0   0   0   6   9   5   0   0   0   0   3   0   0   0   0   9   9   0   6   0   0   0   8 99 93 89 84 82 76 75 68 
   5   0   6   0   3   0   0   0   0   0   0   0   0   7   0   0   8   0   0   0   0   0   0   0   0   6   0   6   0   0   0   8 89 88 86 83 82 79 69 68 
   7   0   0   0   4   0   0   0   0  10   0   0   0   0   0   0   0   0   0   0   0   0   0   0   0   0   0   0   0   0   0   7 92 90 83 81 78 76 74 
   7   0   0   0   0   0   0   0  10   2   0   0   0   0   8   0   0   0   0   0   0   7   0   0   0   6   4   0   0   0   0   6 85 83 79 77 75 68 
   9   0   0   0   0   0   0   0   0   0   0   0   0   0   0   0   0   0   0   6   0   0   4   0   0   0   0   0   0   0   6   6 100 84 82 80 78 76 
   4   0   0   0   0   0   0   0   0   0   0   0   0   0   0   0   4   0   5   0   0   0   0   0   0   0   0   0   2   0   0   4 94 86 76 74 
  10   0   7   0   0   0   0   0   0   0   0   0   0   0   0   8   7   0   0   6   0   0   8   0   0   0   0   0   0   0   0   3 76 75 69 
   7   0   0   0  10   8   0   0   0   0   6   0   0   0   0   0   0   7   0   0   0   0   0   0   8   0   0   7   0   0   0   3 84 77 74 
   7   0   0   0   0   0   0   7   0   0   8   0   0   0   4   0   0   0   0   6   0   6   0   0   0   0   0   0   0   0   0   3 80 78 75 
   2   0   9   0   0   0   0   0   0   0   6   0  10   0  10   0   4   0   0   0   0   0   0   8   0   6   0   0   0   6   0   3 92 78 74 
   8   0   0   0   0   0   0   0   4   0   0  10   0   0   0   0   0   6   0   4   0   7   0   0   0   0   0   0   0   0   0   3 88 80 76 
   5   0   0   0   0   0   0   0   0   0   0   4   4   0   0   0   0   0   0   0   3   0   0   0   0   0   0   9   0   0   0   2 88 68 
   4   0   3   0   0   0   0   0   0   0   0   0   0   5   0   0   0   0   0   0   0   0   0   0   0   0   0   0   0   0   0   2 80 76 
  10   0   0   0   0   0   0   0   0   0   0   0   0   0   0   0   2   0   0   0   0   0   0   0   6   0   0   0   0   0   0   2 79 75 
   8   0   0   0   0   0   0   0   0   0   0   0   6   0   0   0   0   0   0   0   0   0   0   8   0   0   0   0   0   9   0   2 78 75 
   3   0   0   0   0   0   0   0   0   0   6   0   6   0   0   0   0   0   0   0   0   0   0   0   0   0   0   0   0   6   4   2 87 75 
   6   0   0   0   0   0   0   0   0   0   0   0   0   0   0   0  10   0   0   0   0   0   0   0   0   9   0   4   0   0   0   1 74 
   5   0   0   0   0   0   0   0   0   0   0   0   0   9   0   0   0   0   0   0   0   0   0   0   0   0   0   0   6   0   0   1 74 
   4   0   0   0   0   0   0   0   0   0   0   0   0   0   0   0   0   0   0   0   0   0   0   7   0   0   0   0   0   0   0   1 75 
   2   0   0   0   0   0   0   0   5   0   0   0   6   0   0   0   0   0   0   0   0   0   0   0   0   0   0   0   0   0   0   1 78 
   8   0   0   0   0   0   0   0   0   0   0   0   0   0   0   0   0   0   0   0   0   0   0   9   0   0   0   3   0   0   0   1 76 
  10   6   5   0   0   0   0   0   0   0   0   0   0   0   0   0   3   0   0   0   0   0   0   0   0   3   0   0   0   0   0   1 76 
   1   0   0   0   0   0   0   0   0   0   0   9   0   0   0   0   0   0   2   0   0   7   4   0   2   0  10   0   0   6   0   1 102
   6   0   0   6   0   0   0   7   0   0   0   0   0   0   0   0   0   0   0   0   9   0   0   0   0   0   0   0   0   9   0   1 102
  10   0   0   5   0   0   0   0   0   0   0   5   0   0   0   0   0   3   0   0   0   6   0   0   0   0   0   0   0   0  10   1 102
   6   0   0   4   0   0   0   0   0   0   0   2   5   0   0   0   0   0   0   0   0   0   0   4   0   0   0   0   4   0   0   1 102
   4   0   9   0   0   0   0   0   0   6   0   0   0   0   0   0   0   0   0   0   0   0   8   0   0   0   0   0   0   0   0   1 102
   8   0   0   0   0   0   0   0   0   0   0   0   0   0   0   0   0   0   0   0   0   0   0   0   0   0   4   0   0   7   2   1 102
   7   0   0   0   0   0   0   8   0   0   0   0   0   0   0   0   0   0   6   8   4   0   7   0   0   0   0   0   0   0   0   1 102
   1   0   2   0   7   0   0   0   0   0   0   0   0   0   0   0   0   0  10   0   0   8   0   0   0   0   0   0   0   6   0   1 102
   7   0   0   0   0   0   0   0   0   0   0   0   0   0   0   0   0   0   0   0   6   0   0   0   0   0   0   0   0   0   4   1 102
  10   0   0   0   0   0   0   0   5   0   0   0   0   0   0   0   0   0   0   0   0   8   0   9   0   0   0   0   0   0   0   1 102
   4   7   0   0   8   0   0   0   0   0   0   7   0   0   8   0   0   0   5   0   0   0   0   0   0   0   0   0   0   0   0   1 102
   3   6  10   0   0   0   0   0   8   3   0   0   0   0   0   0   0   4   0   0   0   0   0   0   0   0   0   7   0   0   0   1 102
   2   0   0   0   0   0   0   0   0   0   0   0   8   6   0   0   0   5   0   0   0   0   0   0   0   0   0   0   0   0   0   1 102
   2   0   0   0   0   0   0   0   0   0   0   0   0   0   0   0   9   0   0   0   0   0   0   0   0   0   0   0   0   0   0   1 102
   4   0   0   0   0   7   0   0   0   0   0   0   0   0   7   0   0   0   0   5   0   0   0   0   0   0   0   0   0   0   0   1 102
   3   0   0   0   0   0   0   0   0   0   0   0   0   0   0   0   0   0   7   0   9   0   0   0   0   0   0   0   0   0   0   1 102
   4   0   0   0   0   0   0   0  10   0   0   6   0   0   0   0   9   0   0   0   0   0   0   0   0   0   4   0   0   0   0   1 102
   5   0   0   0   0   0   0   0   0   0   0   0  10   0   0   0   4   0   0   0   0   0   0   0   0   0   0   0   0   0   9   1 102
   1   0   3   7   0   0   0   0   0   0   9   0   6   0   0   0   0   0   0   0   0   0   0   0   0   0   0   0  10   0   4   1 102
   7   0   0   0   0   0   0   0   0   0   0   0   0   0   3   0   0   0   0   0   3   0  10   0   0   5   0  10   0   0   0   1 102
   4   0   0   8   0   0   0   0   0   5   0   0   0   0   0   0   0   0   0   0   0   0   0   0   0   0   0   0   0   0   3   1 102
   2   7   0   0   0   0   0   0   0   0   0   0   5   0   0   0   0   0   0   0   0   0   5   0   0   0   0   0   0   0  10   1 102
   4   0   0   0   0   7   0   8   0   0   0   0   5   0   0   0   7   0   0   0   0   0   0   0   0   0   0   0   0   0   0   1 102
  10   0   4   0   0  10   0   0   0   6   0   0   0   0   0   0   0   5   0   0   0   0   0   0   0   3   3   0   0   0   0   1 102
   1   0   0   0   0   0   0   0   0   0   0   7   0   0   0   0   0   0   0   0   0   0   0   0   0   0   0   0   0   0   0   1 102
   5   8   0   0   0   0   0   0   6   9   8   0   0   0   8   0   0   0   0   7   0   0   0   0   0   0   0   0   9   0   0   1 102
   9   0   0   0   0   4   0   5   7   0   0   0   0   0   5   0   0   0   0   0   0   0   0   0   0   0   0   0   8   0   0   1 102
   3   0   0   0   0   0   0   0   0   0   0   0   0   0   0   0   0   8   0   0   0   0   0   0   0   0   4   6   0   0   0   1 102
   0   0   0   0   0   0   0   0   0   0   0   0   0   0   0   0   0   0   0   0   0   0   0   0   0   0   0   0   0   0   0   0 
